outputs/case_86.model.txt
dissolve_reported_and_approved = True
reinsurance_brokerage_stopped = False
agent_or_notary = False
insurance_issues_e_policy = False
dissolve_applied = False
guarantee_deposit_amount = 0
report_requested_within_deadline = True
reported_to_authority_within_1_month = False
minimum_guarantee_deposit = 0
company_dissolved = False
violate_related_regulations = True
subscribed_guarantee_insurance = True
license_revoked = True
resume_reported_and_approved = False
company_stopped = True
bank_as_broker = False
extension_times = 0
stop_period_days = 180
stop_period_expired = True
shareholding_info_disclosed = False
contact_info_provided_to_insurer = False
bank_as_agent = False
subscribed_liability_insurance = True
bank_permitted = False
insured_contact_info_obtained = False
violate_financial_management_rules = True
insurance_company_shareholding_percent = 0
extension_request_days_before_expiry = 0
broker_certificate_cancelled_within_30_days = True
fee_disclosed_clearly = False
insurance_brokerage_stopped = False
inspection_conducted = False
stop_reported_and_approved = False
applicant_contact_info_obtained = False
company_license_revoked = True
operate_both_insurance_and_reinsurance = False
broker_certificates_cancelled = False
company_certificate_cancelled = False
broker_reappointed = False
stop_applied = False
broker = True
fee_charged = False
violate_business_management_rules = True
extension_requested = False
broker_company_shareholding_percent = 0
submit_false_or_incomplete_business_or_financial_reports = False
broker_company_and_bank_internal_procedures_compliance = True
bank_permission_and_separate_application = True
licensed = True
needs_understood = True
sell_unapproved_foreign_policy_discount_certificates = False
violation_financial_or_business_management_rules = True
improve_and_report_on_deficiencies = True
deficiencies_improved = True
management_rules_complied = True
charge_unapproved_fees_or_commissions = False
keep_separate_books_and_annual_report = True
understand_needs_and_suitability_and_sign_documents = True
duty_of_care_exercised = True
use_unapproved_advertisement_content = False
coerce_or_induce_contract = False
broker_company_cancel_certificates_on_stop_or_dissolve = True
internal_procedures_established = True
improvement_report_submitted = True
pay_commission_to_non_actual_solicitor = False
authority_inspect_and_request_report = True
annual_report_submitted = True
broker_company_report_stop_reinsurance_stop_within_1_month = True
broker_company_report_stop_resume_dissolve = True
broker_duty_of_care = True
broker_written_report_and_fee_disclosure = True
permit_others_to_use_license = False
spread_false_information_disturb_financial_order = False
criminal_conviction_for_fraud_or_forgery = False
documents_retained = True
duty_of_fidelity_exercised = True
basic_info_understood = True
authorize_others_to_operate_or_execute = False
main_content_and_rights_explained = True
hold_positions_in_insurance_or_association = False
other_violations_of_rules_or_laws = False
other_behaviors_damaging_insurance_image = False
unauthorized_stop_resume_dissolve = False
broker_understand_and_provide_written_report_before_contract = True
broker_duty_of_care_and_fidelity = True
induce_contract_termination_or_loan_payment = False
broker_fidelity_duty = True
fail_to_reappoint_broker_after_resignation = False
suitability_confirmed = True
has_practice_certificate = True
broker_duty_of_care_and_fidelity_in_business = True
senior_consumer_protection_included = True
separate_books_kept = True
improvement_report_to_audit_committee_submitted = True
fail_to_cancel_license_within_deadlines = False
illegal_insurance_payments = False
internal_procedures_executed = True
written_analysis_report_provided = True
relevant_insurance_type_compliance = True
license_and_guarantee_compliance = True
insured_interest_protected = True
false_declaration_on_license_application = False
transfer_documents_to_unassigned_broker_or_agent = False
fail_to_confirm_consumer_suitability = False
needs_and_risk_understood = True
broker_company_and_bank_report_improvement_to_board_and_audit = True
internal_management_rule_compliance = True
broker_cancel_certificate_within_30_days = True
misappropriate_insurance_funds = False
broker_disclose_shareholding_info_before_contract = True
employ_unqualified_insurance_solicitor = False
prohibited_behaviors = True
misleading_promotion_or_recruitment = False
improper_inducement_to_cancel_or_transfer = False
broker_obtain_and_provide_contact_info_for_e_policy = True
improvement_report_to_board_submitted = True
fail_to_report_to_broker_association = False
penalty = False
relevant_insurance_subscribed = True
broker_company_reappoint_broker_after_resume = True
fail_to_fill_solicitation_report_truthfully = False
contract_with_unapproved_insurer = False
operate_outside_license_scope = False
conceal_important_contract_info = False
documents_signed_or_electronically_confirmed = True
broker_company_stop_period_limit_and_extension = True